(set-logic HORN)
(declare-fun assign_26_10_297_abs01 (Int Int Int Int Int Int) Bool)
(declare-fun assert_25_3_288_abs01 (Int Int Int Int Int Int) Bool)
(declare-fun assert_24_10_270_abs01 (Int Int Int Int Int Int) Bool)
(declare-fun while_22_8_300_abs01 (Int Int Int Int Int Int) Bool)
(declare-fun assert_21_8_229_abs01 (Int Int Int Int Int Int) Bool)
(declare-fun assign_20_8_196_abs01 (Int Int Int Int Int Int) Bool)
(declare-fun assert_19_8_190_abs01 (Int Int Int Int Int Int) Bool)
(declare-fun assign_18_1_157_abs01 (Int Int Int Int Int Int) Bool)
(declare-fun assert_17_8_151_abs01 (Int Int Int Int Int Int) Bool)
(declare-fun assign_15_5_115_abs01 (Int Int Int Int Int Int) Bool)
(declare-fun arrayassign_14_5_106_abs01 (Int Int Int Int Int Int) Bool)
(declare-fun assert_13_12_92_abs01 (Int Int Int Int Int Int) Bool)
(declare-fun while_12_1_118_abs01 (Int Int Int Int Int Int) Bool)
(declare-fun assign_11_1_46_abs01 (Int Int Int Int Int Int) Bool)
(declare-fun end_abs01 (Int Int Int Int Int Int) Bool)
(declare-fun start_abs01 (Int Int Int Int Int Int) Bool)
(assert (forall ((dest (Array Int Int)) (source (Array Int Int)) (l Int) (i Int) (vabs_f_f Int) (vabs_s_f_f Int)) (start_abs01 vabs_f_f (select dest vabs_f_f) vabs_s_f_f (select source vabs_s_f_f) l i)))
(assert (forall ((i Int) (l Int) (source (Array Int Int)) (dest (Array Int Int)) (vabs_0_f_f Int) (vabs_0_s_f_f Int)) (=> (start_abs01 vabs_0_f_f (select dest vabs_0_f_f) vabs_0_s_f_f (select source vabs_0_s_f_f) l i) (assign_11_1_46_abs01 vabs_0_f_f (select dest vabs_0_f_f) vabs_0_s_f_f (select source vabs_0_s_f_f) l i))))
(assert (forall ((i Int) (l Int) (source (Array Int Int)) (dest (Array Int Int)) (vabs_0_f_f Int) (vabs_0_s_f_f Int)) (=> (assign_11_1_46_abs01 vabs_0_f_f (select dest vabs_0_f_f) vabs_0_s_f_f (select source vabs_0_s_f_f) l i) (while_12_1_118_abs01 vabs_0_f_f (select dest vabs_0_f_f) vabs_0_s_f_f (select source vabs_0_s_f_f) l 0))))
(assert (forall ((dest (Array Int Int)) (source (Array Int Int)) (l Int) (i Int) (vabs_0_f_f Int) (vabs_0_s_f_f Int)) (=> (and (while_12_1_118_abs01 vabs_0_f_f (select dest vabs_0_f_f) i (select source i) l i) (while_12_1_118_abs01 vabs_0_f_f (select dest vabs_0_f_f) vabs_0_s_f_f (select source vabs_0_s_f_f) l i) (not (= (select source i) 0))) (assert_13_12_92_abs01 vabs_0_f_f (select dest vabs_0_f_f) vabs_0_s_f_f (select source vabs_0_s_f_f) l i))))
(assert (forall ((dest (Array Int Int)) (source (Array Int Int)) (l Int) (i Int) (vabs_0_f_f Int) (vabs_0_s_f_f Int)) (=> (and (while_12_1_118_abs01 vabs_0_f_f (select dest vabs_0_f_f) i (select source i) l i) (while_12_1_118_abs01 vabs_0_f_f (select dest vabs_0_f_f) vabs_0_s_f_f (select source vabs_0_s_f_f) l i) (not (not (= (select source i) 0)))) (assert_17_8_151_abs01 vabs_0_f_f (select dest vabs_0_f_f) vabs_0_s_f_f (select source vabs_0_s_f_f) l i))))
(assert (forall ((k Int) (i Int) (l Int) (source (Array Int Int)) (dest (Array Int Int))) (=> (and (assert_13_12_92_abs01 k (select dest k) k (select source k) l i) (<= 0 k) (< k i)) (= (select dest k) (select source k)))))
(assert (forall ((i Int) (l Int) (source (Array Int Int)) (dest (Array Int Int)) (vabs_0_f_f Int) (vabs_0_s_f_f Int)) (=> (assert_13_12_92_abs01 vabs_0_f_f (select dest vabs_0_f_f) vabs_0_s_f_f (select source vabs_0_s_f_f) l i) (arrayassign_14_5_106_abs01 vabs_0_f_f (select dest vabs_0_f_f) vabs_0_s_f_f (select source vabs_0_s_f_f) l i))))
(assert (forall ((i Int) (l Int) (source (Array Int Int)) (dest (Array Int Int)) (vabs_0_f_f Int) (vabs_0_s_f_f Int)) (=> (and (arrayassign_14_5_106_abs01 vabs_0_f_f (select dest vabs_0_f_f) vabs_0_s_f_f (select source vabs_0_s_f_f) l i) (arrayassign_14_5_106_abs01 vabs_0_f_f (select dest vabs_0_f_f) i (select source i) l i)) (assign_15_5_115_abs01 vabs_0_f_f (select (store dest i (select source i)) vabs_0_f_f) vabs_0_s_f_f (select source vabs_0_s_f_f) l i))))
(assert (forall ((i Int) (l Int) (source (Array Int Int)) (dest (Array Int Int)) (vabs_0_f_f Int) (vabs_0_s_f_f Int)) (=> (assign_15_5_115_abs01 vabs_0_f_f (select dest vabs_0_f_f) vabs_0_s_f_f (select source vabs_0_s_f_f) l i) (while_12_1_118_abs01 vabs_0_f_f (select dest vabs_0_f_f) vabs_0_s_f_f (select source vabs_0_s_f_f) l (+ i 1)))))
(assert (forall ((k Int) (i Int) (l Int) (source (Array Int Int)) (dest (Array Int Int))) (=> (and (assert_17_8_151_abs01 k (select dest k) k (select source k) l i) (<= 0 k) (< k i)) (= (select source k) (select dest k)))))
(assert (forall ((i Int) (l Int) (source (Array Int Int)) (dest (Array Int Int)) (vabs_0_f_f Int) (vabs_0_s_f_f Int)) (=> (assert_17_8_151_abs01 vabs_0_f_f (select dest vabs_0_f_f) vabs_0_s_f_f (select source vabs_0_s_f_f) l i) (assign_18_1_157_abs01 vabs_0_f_f (select dest vabs_0_f_f) vabs_0_s_f_f (select source vabs_0_s_f_f) l i))))
(assert (forall ((i Int) (l Int) (source (Array Int Int)) (dest (Array Int Int)) (vabs_0_f_f Int) (vabs_0_s_f_f Int)) (=> (assign_18_1_157_abs01 vabs_0_f_f (select dest vabs_0_f_f) vabs_0_s_f_f (select source vabs_0_s_f_f) l i) (assert_19_8_190_abs01 vabs_0_f_f (select dest vabs_0_f_f) vabs_0_s_f_f (select source vabs_0_s_f_f) i i))))
(assert (forall ((k Int) (i Int) (l Int) (source (Array Int Int)) (dest (Array Int Int))) (=> (and (assert_19_8_190_abs01 k (select dest k) k (select source k) l i) (<= 0 k) (< k l)) (= (select source k) (select dest k)))))
(assert (forall ((i Int) (l Int) (source (Array Int Int)) (dest (Array Int Int)) (vabs_0_f_f Int) (vabs_0_s_f_f Int)) (=> (assert_19_8_190_abs01 vabs_0_f_f (select dest vabs_0_f_f) vabs_0_s_f_f (select source vabs_0_s_f_f) l i) (assign_20_8_196_abs01 vabs_0_f_f (select dest vabs_0_f_f) vabs_0_s_f_f (select source vabs_0_s_f_f) l i))))
(assert (forall ((i Int) (l Int) (source (Array Int Int)) (dest (Array Int Int)) (vabs_0_f_f Int) (vabs_0_s_f_f Int)) (=> (assign_20_8_196_abs01 vabs_0_f_f (select dest vabs_0_f_f) vabs_0_s_f_f (select source vabs_0_s_f_f) l i) (assert_21_8_229_abs01 vabs_0_f_f (select dest vabs_0_f_f) vabs_0_s_f_f (select source vabs_0_s_f_f) l 0))))
(assert (forall ((k Int) (i Int) (l Int) (source (Array Int Int)) (dest (Array Int Int))) (=> (and (assert_21_8_229_abs01 k (select dest k) k (select source k) l i) (<= 0 k) (< k l)) (= (select source k) (select dest k)))))
(assert (forall ((i Int) (l Int) (source (Array Int Int)) (dest (Array Int Int)) (vabs_0_f_f Int) (vabs_0_s_f_f Int)) (=> (assert_21_8_229_abs01 vabs_0_f_f (select dest vabs_0_f_f) vabs_0_s_f_f (select source vabs_0_s_f_f) l i) (while_22_8_300_abs01 vabs_0_f_f (select dest vabs_0_f_f) vabs_0_s_f_f (select source vabs_0_s_f_f) l i))))
(assert (forall ((dest (Array Int Int)) (source (Array Int Int)) (l Int) (i Int) (vabs_0_f_f Int) (vabs_0_s_f_f Int)) (=> (and (while_22_8_300_abs01 vabs_0_f_f (select dest vabs_0_f_f) vabs_0_s_f_f (select source vabs_0_s_f_f) l i) (< i l)) (assert_24_10_270_abs01 vabs_0_f_f (select dest vabs_0_f_f) vabs_0_s_f_f (select source vabs_0_s_f_f) l i))))
(assert (forall ((dest (Array Int Int)) (source (Array Int Int)) (l Int) (i Int) (vabs_0_f_f Int) (vabs_0_s_f_f Int)) (=> (and (while_22_8_300_abs01 vabs_0_f_f (select dest vabs_0_f_f) vabs_0_s_f_f (select source vabs_0_s_f_f) l i) (not (< i l))) (end_abs01 vabs_0_f_f (select dest vabs_0_f_f) vabs_0_s_f_f (select source vabs_0_s_f_f) l i))))
(assert (forall ((k Int) (i Int) (l Int) (source (Array Int Int)) (dest (Array Int Int))) (=> (and (assert_24_10_270_abs01 k (select dest k) k (select source k) l i) (<= 0 k) (< k l)) (= (select source k) (select dest k)))))
(assert (forall ((i Int) (l Int) (source (Array Int Int)) (dest (Array Int Int)) (vabs_0_f_f Int) (vabs_0_s_f_f Int)) (=> (assert_24_10_270_abs01 vabs_0_f_f (select dest vabs_0_f_f) vabs_0_s_f_f (select source vabs_0_s_f_f) l i) (assert_25_3_288_abs01 vabs_0_f_f (select dest vabs_0_f_f) vabs_0_s_f_f (select source vabs_0_s_f_f) l i))))
(assert (forall ((i Int) (l Int) (source (Array Int Int)) (dest (Array Int Int))) (=> (assert_25_3_288_abs01 i (select dest i) i (select source i) l i) (= (select source i) (select dest i)))))
(assert (forall ((i Int) (l Int) (source (Array Int Int)) (dest (Array Int Int)) (vabs_0_f_f Int) (vabs_0_s_f_f Int)) (=> (assert_25_3_288_abs01 vabs_0_f_f (select dest vabs_0_f_f) vabs_0_s_f_f (select source vabs_0_s_f_f) l i) (assign_26_10_297_abs01 vabs_0_f_f (select dest vabs_0_f_f) vabs_0_s_f_f (select source vabs_0_s_f_f) l i))))
(assert (forall ((i Int) (l Int) (source (Array Int Int)) (dest (Array Int Int)) (vabs_0_f_f Int) (vabs_0_s_f_f Int)) (=> (assign_26_10_297_abs01 vabs_0_f_f (select dest vabs_0_f_f) vabs_0_s_f_f (select source vabs_0_s_f_f) l i) (while_22_8_300_abs01 vabs_0_f_f (select dest vabs_0_f_f) vabs_0_s_f_f (select source vabs_0_s_f_f) l (+ i 1)))))
(check-sat)